benchmarks/bfuzz0/2048426276214486032398631913277817719.smt2
(set-logic QF_FP)
(declare-const x0 (_ FloatingPoint 8 24))
(declare-const x1 (_ FloatingPoint 8 24))
(declare-const x2 (_ FloatingPoint 8 24))
(declare-const x3 (_ FloatingPoint 8 24))
(declare-const x4 (_ FloatingPoint 8 24))
(declare-const x5 (_ FloatingPoint 8 24))
(declare-const x6 (_ FloatingPoint 8 24))
(declare-const x7 (_ FloatingPoint 8 24))
(declare-const x8 (_ FloatingPoint 8 24))
(declare-const x9 (_ FloatingPoint 8 24))
(declare-const x10 (_ FloatingPoint 8 24))
(declare-const x11 (_ FloatingPoint 8 24))
(declare-const x12 (_ FloatingPoint 8 24))
(declare-const x13 (_ FloatingPoint 8 24))
(declare-const x14 (_ FloatingPoint 8 24))
(declare-const x15 (_ FloatingPoint 8 24))
(declare-const x16 (_ FloatingPoint 8 24))
(declare-const x17 (_ FloatingPoint 8 24))
(declare-const x18 (_ FloatingPoint 8 24))
(declare-const x19 (_ FloatingPoint 8 24))
(declare-const x20 (_ FloatingPoint 8 24))
(declare-const x21 (_ FloatingPoint 8 24))
(declare-const x22 (_ FloatingPoint 8 24))
(assert (fp.geq (fp.add RNE x16 x16) (fp.mul RNE x19 x1)))
(assert (fp.leq (fp.neg x15) (fp.add RNE x21 x8)))
(assert (fp.gt (fp.div RNE x15 x10) (fp.neg x15)))
(assert (fp.eq (fp.sub RNE x15 x14) (fp.sub RNE x9 x0)))
(assert (fp.lt (fp.sub RNE x14 x3) (fp.neg x17)))
(assert (fp.gt (fp.add RNE x12 x20) (fp.sub RNE x21 x12)))
(assert (fp.eq (fp.add RNE x5 x5) (fp.div RNE x15 x16)))
(assert (fp.eq (fp.sub RNE x6 x2) (fp.mul RNE x13 x14)))
(assert (fp.leq (fp.mul RNE x17 x11) (fp.sub RNE x2 x13)))
(assert (fp.eq (fp.neg x8) (fp.add RNE x16 x5)))
(assert (fp.geq (fp.sub RNE x1 x15) (fp.sub RNE x6 x2)))
(assert (fp.gt (fp.neg x0) (fp.sub RNE x0 x4)))
(assert (fp.leq (fp.mul RNE x21 x4) (fp.sub RNE x0 x4)))
(assert (fp.geq (fp.mul RNE x22 x16) (fp.neg x18)))
(check-sat)
