db/data/2048426276214486032398631913277817719.z3.out
sat
-------------------
106.650440987
